09-routing/solutions/XSH-n20-k4-16.opt.sol
Route #1: 3 13 4 12 18 2 15
Route #2: 9 14 19
Route #3: 7 20 5 1 6 10
Route #4: 8 17 16 11
Cost 830
